(set-logic HORN)
(set-info :source |
    Benchmark: C_VC
    Output by Princess (http://www.philipp.ruemmer.org/princess.shtml)
|)
(set-info :status sat)
(declare-fun inv_main14 (Int Int Int Int) Bool)
(declare-fun inv_main17 (Int Int Int Int) Bool)
(declare-fun inv_main21 (Int Int Int Int) Bool)
(declare-fun inv_main6 (Int Int Int Int) Bool)
(assert (inv_main6 6 6 6 6))
(assert (forall ((var0 Int) (var1 Int) (var2 Int) (var3 Int)) (or (not (and (inv_main14 var3 var2 var1 var0) (and (and (or (or (or (not (= (+ var3 1) 6)) (not (= (+ var2 1) 6))) (not (= var1 6))) (not (= var0 6))) (not (<= 0 (+ (+ 6 (* (- 1) (+ var3 1))) (- 1))))) (and (not (<= 0 (+ (+ 6 (* (- 1) (+ var2 1))) (- 1)))) (not (<= 0 (+ (+ 6 (* (- 1) var1)) (- 1)))))))) (inv_main21 (+ var3 1) (+ var2 1) var1 var0))))
(assert (forall ((var0 Int) (var1 Int) (var2 Int) (var3 Int)) (or (not (and (inv_main14 var3 var2 var1 var0) (<= 0 (+ (+ 6 (* (- 1) var1)) (- 1))))) (inv_main17 var3 var2 var1 0))))
(assert (forall ((var0 Int) (var1 Int) (var2 Int) (var3 Int)) (or (not (and (inv_main17 var3 var2 var1 var0) (<= 0 (+ (+ 6 (* (- 1) var0)) (- 1))))) (inv_main17 var3 var2 var1 (+ var0 1)))))
(assert (forall ((var0 Int) (var1 Int) (var2 Int) (var3 Int)) (or (not (and (inv_main17 var3 var2 var1 var0) (not (<= 0 (+ (+ 6 (* (- 1) var0)) (- 1)))))) (inv_main14 var3 var2 (+ var1 1) var0))))
(assert (forall ((var0 Int) (var1 Int) (var2 Int) (var3 Int)) (or (not (and (inv_main14 var3 var2 var1 var0) (and (<= 0 (+ (+ 6 (* (- 1) (+ var2 1))) (- 1))) (not (<= 0 (+ (+ 6 (* (- 1) var1)) (- 1))))))) (inv_main14 var3 (+ var2 1) 0 var0))))
(assert (forall ((var0 Int) (var1 Int) (var2 Int) (var3 Int)) (or (not (inv_main6 var3 var2 var1 var0)) (inv_main14 0 0 0 var0))))
(assert (forall ((var0 Int) (var1 Int) (var2 Int) (var3 Int)) (or (not (and (inv_main14 var3 var2 var1 var0) (and (<= 0 (+ (+ 6 (* (- 1) (+ var3 1))) (- 1))) (and (not (<= 0 (+ (+ 6 (* (- 1) (+ var2 1))) (- 1)))) (not (<= 0 (+ (+ 6 (* (- 1) var1)) (- 1)))))))) (inv_main14 (+ var3 1) 0 0 var0))))
(assert (forall ((var0 Int) (var1 Int) (var2 Int) (var3 Int)) (not (inv_main21 var3 var2 var1 var0))))
(check-sat)
